50 8
241 389
655 775
283 942
400 706
457 471
385 479
326 687
719 743
732 444
677 556
194 160
524 630
664 567
453 634
491 803
574 748
401 324
357 930
383 670
469 687
207 415
762 645
331 856
684 191
797 480
369 67
286 542
145 631
165 535
590 280
162 543
685 828
792 643
417 811
626 646
765 607
719 155
631 467
708 432
770 812
670 693
86 646
103 801
783 660
158 505
258 249
268 108
615 596
692 342
162 878
